etc/upTests/tuples_nested5/0002.eprime.solution
language ESSENCE' 1.0
$ minion Nodes: 1
$ minion TotalTime: 0.00126
$ Savile Row TotalTime: 0.485
letting y_tuple1 be 1
letting y_tuple3 be 4
letting y_tuple4_tuple1 be 5
letting y_tuple4_tuple2 be 6
letting y_tuple2_SetExplicit_tuple1 be [10, 11;int(1..2)]
letting y_tuple2_SetExplicit_tuple2 be [12, 13;int(1..2)]
letting y_tuple4_tuple3_SetOccurrence be [true, true, true;int(7,8,9)]
